HmaxDs = 0.000000
HmaxUB_percent = 1.087516
HmaxUB_real = 3949.695348
FTnetDs = 2.000000
FTnetUB_percent = 1.819006
FTnetUB_real = 9624.524457
TIFgap = 0.200000
LimCIPF = 99.67323184
SCIP version 1.1.0 [precision: 8 byte] [memory: block] [mode: optimized] [LP solver: Clp 1.8.2]
Copyright (c) 2002-2008 Konrad-Zuse-Zentrum fuer Informationstechnik Berlin (ZIB)

reading user parameter file </home/fabio/docs/hierarquia/models/scip.set>

read problem <data.N30.I1.s1.cluster3.T7.GL2.W1.TIFgap0.2.mps.gz>
============

original problem has 530 variables (273 bin, 0 int, 0 impl, 257 cont) and 196 constraints

solve problem
=============

presolving:
(round 1) 3 del vars, 3 del conss, 4 chg bounds, 0 chg sides, 36 chg coeffs, 0 upgd conss, 0 impls, 42 clqs
(round 2) 5 del vars, 3 del conss, 4 chg bounds, 1 chg sides, 36 chg coeffs, 0 upgd conss, 0 impls, 42 clqs
(round 3) 5 del vars, 3 del conss, 4 chg bounds, 3 chg sides, 36 chg coeffs, 0 upgd conss, 0 impls, 42 clqs
(round 4) 5 del vars, 4 del conss, 4 chg bounds, 3 chg sides, 36 chg coeffs, 43 upgd conss, 0 impls, 42 clqs
   (0.0s) probing: 101/273 (37.0%) - 0 fixings, 0 aggregations, 0 implications, 0 bound changes
   (0.0s) probing aborted: 100/100 successive totally useless probings
presolving (5 rounds):
 5 deleted vars, 4 deleted constraints, 4 tightened bounds, 0 added holes, 3 changed sides, 36 changed coefficients
 0 implications, 42 cliques
presolved problem has 525 variables (273 bin, 0 int, 0 impl, 252 cont) and 192 constraints
      1 constraints of type <knapsack>
     42 constraints of type <setppc>
    149 constraints of type <linear>
Presolving Time: 0.03

 time | node  | left  |LP iter| mem |mdpt |frac |vars |cons |ccons|cols |rows |cuts |confs|strbr|  dualbound   | primalbound  |  gap   
  0.1s|     1 |     0 |   190 |1317k|   0 |  73 | 525 | 192 | 192 | 525 | 192 |   0 |   0 |   0 | 9.018155e+01 |      --      |    Inf 
  0.3s|     1 |     0 |  1569 |1470k|   0 |  64 | 525 | 192 | 192 | 525 | 222 |  30 |   0 |   0 | 5.935946e+03 |      --      |    Inf 
  0.5s|     1 |     0 |  1610 |1505k|   0 |  66 | 525 | 192 | 192 | 525 | 234 |  42 |   0 |   0 | 6.503495e+03 |      --      |    Inf 
  0.6s|     1 |     0 |  1747 |1545k|   0 |  60 | 525 | 192 | 192 | 525 | 251 |  59 |   0 |   0 | 8.013561e+03 |      --      |    Inf 
  0.8s|     1 |     0 |  1825 |1586k|   0 |  65 | 525 | 192 | 192 | 525 | 272 |  80 |   0 |   0 | 8.414576e+03 |      --      |    Inf 
  0.9s|     1 |     0 |  1897 |1608k|   0 |  69 | 525 | 192 | 192 | 525 | 290 |  98 |   0 |   0 | 8.727490e+03 |      --      |    Inf 
  1.2s|     1 |     0 |  2004 |1616k|   0 |  69 | 525 | 192 | 192 | 525 | 297 | 105 |   0 |   0 | 8.933457e+03 |      --      |    Inf 
  1.4s|     1 |     0 |  2068 |1622k|   0 |  75 | 525 | 192 | 192 | 525 | 303 | 111 |   0 |   0 | 9.097643e+03 |      --      |    Inf 
  1.5s|     1 |     0 |  2096 |1627k|   0 |  77 | 525 | 192 | 192 | 525 | 308 | 116 |   0 |   0 | 9.135778e+03 |      --      |    Inf 
  1.7s|     1 |     0 |  2155 |1633k|   0 |  74 | 525 | 192 | 192 | 525 | 314 | 122 |   0 |   0 | 9.211869e+03 |      --      |    Inf 
  1.9s|     1 |     0 |  2174 |1637k|   0 |  72 | 525 | 192 | 192 | 525 | 316 | 124 |   0 |   0 | 9.223322e+03 |      --      |    Inf 
  4.3s|     1 |     2 |  2182 |1641k|   0 |  72 | 525 | 192 | 192 | 525 | 316 | 124 |   0 |  22 | 9.223322e+03 |      --      |    Inf 

SCIP Status        : problem is solved [infeasible]
Solving Time (sec) : 4.75
Solving Nodes      : 3
Primal Bound       : +1.00000000000000e+20 (0 solutions)
Dual Bound         : +1.00000000000000e+20
Gap                : 0.00 %

primal solution:
================

no solution available

Statistics
==========

SCIP Status        : problem is solved [infeasible]
Solving Time       :       4.75
Original Problem   :
  Problem name     : labtel
  Variables        : 530 (273 binary, 0 integer, 0 implicit integer, 257 continuous)
  Constraints      : 196 initial, 196 maximal
Presolved Problem  :
  Problem name     : t_labtel
  Variables        : 525 (273 binary, 0 integer, 0 implicit integer, 252 continuous)
  Constraints      : 192 initial, 192 maximal
Presolvers         :       Time  FixedVars   AggrVars   ChgTypes  ChgBounds   AddHoles    DelCons   ChgSides   ChgCoefs
  trivial          :       0.00          0          0          0          0          0          0          0          0
  dualfix          :       0.00          0          0          0          0          0          0          0          0
  boundshift       :       0.00          0          0          0          0          0          0          0          0
  inttobinary      :       0.00          0          0          0          0          0          0          0          0
  implics          :       0.00          0          0          0          0          0          0          0          0
  probing          :       0.02          0          0          0          0          0          0          0          0
  knapsack         :       0.00          0          0          0          0          0          0          0          0
  setppc           :       0.00          0          0          0          0          0          0          0          0
  linear           :       0.01          0          5          0          4          0          4          3         36
  root node        :          -         23          -          -         23          -          -          -          -
Constraints        :     Number  #Separate #Propagate    #EnfoLP    #EnfoPS    Cutoffs    DomReds       Cuts      Conss   Children
  integral         :          0          0          0          3          0          0         10          0          0          2
  knapsack         :          1         11        208          0          0          0          0          0          0          0
  setppc           :         42         11        208          0          0          0         27          0          0          0
  linear           :        149         11        208          0          0          0          0          1          0          0
  countsols        :          0          0          0          0          0          0          0          0          0          0
Constraint Timings :  TotalTime   Separate  Propagate     EnfoLP     EnfoPS
  integral         :       0.81       0.00       0.00       0.81       0.00
  knapsack         :       0.00       0.00       0.00       0.00       0.00
  setppc           :       0.00       0.00       0.00       0.00       0.00
  linear           :       0.05       0.04       0.01       0.00       0.00
  countsols        :       0.00       0.00       0.00       0.00       0.00
Propagators        :       Time      Calls    Cutoffs    DomReds
  rootredcost      :       0.00          0          0          0
  pseudoobj        :       0.01         21          1          0
Conflict Analysis  :       Time      Calls    Success  Conflicts   Literals    Reconvs ReconvLits   LP Iters
  propagation      :       0.00          0          0          0        0.0          0        0.0          -
  infeasible LP    :       0.00          1          0          0        0.0          0        0.0          0
  bound exceed. LP :       0.00          0          0          0        0.0          0        0.0          0
  strong branching :       0.00          0          0          0        0.0          0        0.0          0
  pseudo solution  :       0.00          0          0          0        0.0          0        0.0          -
  applied globally :          -          -          -          0        0.0          -          -          -
  applied locally  :          -          -          -          0        0.0          -          -          -
Separators         :       Time      Calls    Cutoffs    DomReds       Cuts      Conss
  cut pool         :       0.00         10          -          -         38          -    (maximal pool size: 195)
  redcost          :       0.00         13          0          0          0          0
  impliedbounds    :       0.00         11          0          0          0          0
  intobj           :       0.00          0          0          0          0          0
  gomory           :       0.09         11          0          0         14          0
  strongcg         :       0.09         11          0          0          1          0
  cmir             :       0.70         10          0          0        167          0
  flowcover        :       0.62         10          0          0         36          0
  clique           :       0.01         11          0          0          0          0
  zerohalf         :       0.00          0          0          0          0          0
  mcf              :       0.00          0          0          0          0          0
Pricers            :       Time      Calls       Vars
  problem variables:       0.00          0          0
Branching Rules    :       Time      Calls    Cutoffs    DomReds       Cuts      Conss   Children
  relpscost        :       0.81          3          0         10          0          0          2
  pscost           :       0.00          0          0          0          0          0          0
  inference        :       0.00          0          0          0          0          0          0
  mostinf          :       0.00          0          0          0          0          0          0
  leastinf         :       0.00          0          0          0          0          0          0
  fullstrong       :       0.00          0          0          0          0          0          0
  allfullstrong    :       0.00          0          0          0          0          0          0
  random           :       0.00          0          0          0          0          0          0
Primal Heuristics  :       Time      Calls      Found
  LP solutions     :       0.00          -          0
  pseudo solutions :       0.00          -          0
  oneopt           :       0.00          0          0
  coefdiving       :       0.00          0          0
  simplerounding   :       0.00          0          0
  rounding         :       0.00         13          0
  shifting         :       0.00         11          0
  intshifting      :       0.01          1          0
  fixandinfer      :       0.00          0          0
  feaspump         :       0.12          1          0
  pscostdiving     :       0.00          0          0
  fracdiving       :       0.00          0          0
  veclendiving     :       0.00          0          0
  intdiving        :       0.00          0          0
  actconsdiving    :       0.00          0          0
  objpscostdiving  :       0.00          0          0
  rootsoldiving    :       0.00          0          0
  linesearchdiving :       0.00          0          0
  guideddiving     :       0.00          0          0
  octane           :       0.00          0          0
  rens             :       1.95          1          0
  rins             :       0.00          0          0
  localbranching   :       0.00          0          0
  mutation         :       0.00          0          0
  crossover        :       0.00          0          0
  dins             :       0.00          0          0
LP                 :       Time      Calls Iterations  Iter/call   Iter/sec
  primal LP        :       0.01          0          0       0.00          -
  dual LP          :       0.24         16       1226      76.62    5108.33
  barrier LP       :       0.00          0          0       0.00          -
  diving/probing LP:       0.12         28       1294      46.21   10783.33
  strong branching :       0.81         42       4927     117.31    6082.72
    (at root node) :          -         22       2726     123.91          -
  conflict analysis:       0.00          0          0       0.00          -
B&B Tree           :
  number of runs   :          1
  nodes            :          3
  nodes (total)    :          3
  nodes left       :          0
  max depth        :          1
  max depth (total):          1
  backtracks       :          0 (0.0%)
  delayed cutoffs  :          0
  repropagations   :          0 (0 domain reductions, 0 cutoffs)
  avg switch length:       2.00
  switching time   :       0.01
Solution           :
  Solutions found  :          0 (0 improvements)
  Primal Bound     : infeasible
  Dual Bound       :          -
  Gap              :       0.00 %
  Root Dual Bound  : +9.22332159040283e+03
